n = 20;
m = 5;
p = [12, 4, 0, 4, 0];
v = [0, 0.25, 0.5, 0.75, 1];
ce = [1, 2, 1, 1, 3];
c = array2d(1..m, 1..m, [0, 2, 4, 5, 7, 1, 0, 3, 4, 6, 3, 2, 0, 2, 4, 4, 2, 1, 0, 2, 8, 5, 3, 2, 0]);
ct = 20;
maxM = 18;
